1 -1 2 0
1 -2 -3 0
1 2 4 0
1 5 3 0
1 4 -6 0
1 4 7 0
1 -8 -9 0
1 -3 -10 0
1 -11 -12 0
1 13 -14 0
1 13 8 0
1 6 15 0
1 7 -16 0
1 -17 15 0
1 -17 18 0
1 17 19 0
1 -17 16 0
1 14 20 0
1 -18 -21 0
1 -18 -14 0
1 -21 -20 0
1 21 22 0
1 21 -23 0
1 -20 14 0
1 -20 -22 0
1 -24 25 0
1 -23 -26 0
1 -23 24 0
1 -27 21 0
1 -19 7 0
1 -28 -29 0
1 28 30 0
1 31 32 0
1 31 33 0
1 34 35 0
1 -32 36 0
1 29 -34 0
1 -37 -29 0
1 37 38 0
1 37 -31 0
1 39 33 0
1 39 3 0
1 -39 -40 0
1 41 -33 0
1 -41 42 0
1 41 -43 0
1 -44 -45 0
1 44 46 0
1 -47 42 0
1 -47 48 0
1 35 -40 0
1 35 49 0
1 40 -50 0
1 40 -39 0
1 -33 -41 0
1 -43 51 0
1 43 -47 0
1 -43 36 0
1 -52 -35 0
1 -50 -53 0
1 -50 54 0
1 -50 -16 0
1 -55 -15 0
1 55 -53 0
1 55 -56 0
1 57 55 0
1 57 52 0
1 57 10 0
1 58 -9 0
1 -58 19 0
1 -58 46 0
1 -58 49 0
1 -58 54 0
1 58 57 0
1 59 60 0
1 59 -15 0
1 -61 62 0
1 -61 -56 0
1 63 -64 0
1 -54 65 0
1 54 -58 0
1 54 50 0
1 54 66 0
1 -9 55 0
1 9 54 0
1 9 -8 0
1 53 67 0
1 56 65 0
1 56 58 0
1 56 -68 0
1 56 69 0
1 26 9 0
1 -66 -9 0
1 70 -64 0
1 -70 71 0
1 -72 73 0
1 -72 70 0
1 -72 -74 0
1 -75 76 0
1 -73 -63 0
1 -77 78 0
1 -64 61 0
1 64 79 0
1 -64 80 0
1 64 63 0
1 81 73 0
1 -76 82 0
1 -83 -84 0
1 71 85 0
1 -71 76 0
1 82 86 0
1 -82 -76 0
1 -82 -71 0
1 82 79 0
1 -87 -88 0
1 87 89 0
1 -87 -31 0
1 -90 -89 0
1 89 -90 0
1 91 -92 0
1 93 -94 0
1 -93 -95 0
1 -96 -95 0
1 96 -93 0
1 -95 97 0
1 -95 -98 0
1 99 -87 0
1 -51 -100 0
1 -51 101 0
1 -102 101 0
1 -103 -51 0
1 101 -104 0
1 -49 45 0
1 -49 -105 0
1 49 106 0
1 -49 43 0
1 60 106 0
1 -62 106 0
1 -107 108 0
1 107 109 0
1 -110 111 0
1 110 -112 0
1 -110 -68 0
1 111 -112 0
1 113 114 0
1 -113 49 0
1 113 -115 0
1 -106 116 0
1 -117 118 0
1 68 53 0
1 -119 -120 0
1 121 -122 0
1 -121 123 0
1 122 124 0
1 122 -68 0
1 -122 -107 0
1 108 125 0
1 -118 -62 0
1 -120 -126 0
1 120 -119 0
1 120 -112 0
1 -120 -107 0
1 65 54 0
1 65 -77 0
1 -65 -127 0
1 -125 123 0
1 -125 -77 0
1 128 80 0
1 -128 -108 0
1 128 129 0
1 -80 64 0
1 80 129 0
1 -80 69 0
1 130 -86 0
1 -127 85 0
1 127 131 0
1 127 121 0
1 123 -131 0
1 123 -125 0
1 -129 132 0
1 -129 -65 0
1 -85 -130 0
1 -85 -75 0
1 -86 133 0
1 -134 -78 0
1 134 69 0
1 135 -86 0
1 -135 54 0
1 135 136 0
1 133 -135 0
1 133 -136 0
1 69 137 0
1 138 -139 0
1 140 -141 0
1 -140 78 0
1 -140 -142 0
1 -78 143 0
1 78 77 0
1 78 -136 0
1 144 -145 0
1 -146 -147 0
1 146 -148 0
1 147 149 0
1 147 150 0
1 -147 -151 0
1 -147 144 0
1 152 150 0
1 152 140 0
1 142 153 0
1 -139 -146 0
1 139 154 0
1 -155 -156 0
1 157 -158 0
1 -159 160 0
1 161 -157 0
1 -156 -162 0
1 -163 164 0
1 165 -166 0
1 -167 168 0
1 -160 -169 0
1 -170 162 0
1 171 94 0
1 -171 -99 0
1 -171 -172 0
1 -171 -89 0
1 -100 166 0
1 -173 -102 0
1 -172 -174 0
1 -172 175 0
1 -172 -171 0
1 176 100 0
1 -176 -174 0
1 177 -178 0
1 -168 -178 0
1 168 -179 0
1 105 -88 0
1 -105 95 0
1 180 176 0
1 180 181 0
1 180 -104 0
1 109 -182 0
1 109 181 0
1 -109 183 0
1 -184 109 0
1 185 98 0
1 -185 -180 0
1 186 -98 0
1 92 105 0
1 -114 -187 0
1 114 183 0
1 114 -188 0
1 -189 181 0
1 -189 -179 0
1 190 -191 0
1 190 -192 0
1 115 -185 0
1 115 192 0
1 188 114 0
1 188 112 0
1 -181 -126 0
1 -181 -193 0
1 181 -112 0
1 183 182 0
1 -183 95 0
1 -183 -194 0
1 182 -195 0
1 126 -191 0
1 126 -65 0
1 -126 192 0
1 112 -181 0
1 -112 -111 0
1 196 -197 0
1 196 120 0
1 198 -199 0
1 198 196 0
1 198 193 0
1 192 -112 0
1 197 -196 0
1 197 -126 0
1 197 190 0
1 124 200 0
1 200 118 0
1 -200 -79 0
1 201 -198 0
1 201 129 0
1 -202 203 0
1 202 198 0
1 -203 110 0
1 -204 -203 0
1 204 -200 0
1 -204 111 0
1 204 -193 0
1 -205 -196 0
1 206 124 0
1 -132 -207 0
1 132 127 0
1 -131 132 0
1 -131 130 0
1 -208 209 0
1 210 -211 0
1 212 -201 0
1 213 -108 0
1 -213 214 0
1 -207 -215 0
1 207 208 0
1 -216 217 0
1 136 -213 0
1 218 141 0
1 -218 67 0
1 218 136 0
1 -219 148 0
1 -219 220 0
1 -148 213 0
1 -211 148 0
1 211 -221 0
1 -220 222 0
1 -220 123 0
1 -220 -210 0
1 -154 -223 0
1 -224 -225 0
1 224 -145 0
1 -226 -227 0
1 228 223 0
1 227 229 0
1 -230 -133 0
1 -230 -231 0
1 -230 229 0
1 225 -224 0
1 225 -232 0
1 -229 230 0
1 -229 -233 0
1 149 -229 0
1 149 142 0
1 234 153 0
1 -235 -236 0
1 237 238 0
1 236 234 0
1 -233 -239 0
1 -240 241 0
1 240 233 0
1 -238 242 0
1 -243 237 0
1 244 -153 0
1 -245 -236 0
1 246 -245 0
1 -247 234 0
1 -153 239 0
1 -242 -238 0
1 248 249 0
1 -250 -251 0
1 -251 250 0
1 252 253 0
1 -252 -254 0
1 -249 255 0
1 -256 -250 0
1 -257 258 0
1 259 260 0
1 -259 261 0
1 -262 -263 0
1 264 -265 0
1 162 -266 0
1 267 -268 0
1 267 -269 0
1 -270 267 0
1 -270 -256 0
1 -270 269 0
1 -178 -177 0
1 178 -271 0
1 -272 -168 0
1 -272 273 0
1 -274 275 0
1 -274 -276 0
1 277 169 0
1 278 -279 0
1 271 -280 0
1 -281 282 0
1 273 -283 0
1 -273 178 0
1 273 284 0
1 179 92 0
1 285 278 0
1 -169 285 0
1 169 286 0
1 276 -179 0
1 -276 -287 0
1 -286 -182 0
1 -286 -186 0
1 -288 -289 0
1 288 -290 0
1 195 -291 0
1 -195 169 0
1 195 292 0
1 -195 290 0
1 195 -183 0
1 -175 -195 0
1 -293 -294 0
1 293 195 0
1 291 285 0
1 -291 -295 0
1 -296 293 0
1 296 -175 0
1 296 290 0
1 297 -295 0
1 -298 299 0
1 298 175 0
1 300 -175 0
1 290 301 0
1 289 -209 0
1 -302 303 0
1 -304 305 0
1 -199 198 0
1 -301 -299 0
1 -209 306 0
1 209 -307 0
1 -209 308 0
1 309 209 0
1 309 -289 0
1 309 299 0
1 309 307 0
1 -309 290 0
1 299 298 0
1 -194 298 0
1 -194 310 0
1 -194 -311 0
1 -312 -313 0
1 215 307 0
1 217 -314 0
1 217 315 0
1 -316 -209 0
1 -316 317 0
1 318 319 0
1 -307 217 0
1 307 -320 0
1 319 -207 0
1 -319 321 0
1 322 -318 0
1 323 324 0
1 -323 -220 0
1 -321 -325 0
1 -315 322 0
1 326 -315 0
1 -221 214 0
1 -222 -149 0
1 222 214 0
1 -327 -328 0
1 -327 329 0
1 327 -232 0
1 -330 331 0
1 -330 232 0
1 332 329 0
1 -332 214 0
1 -333 227 0
1 333 233 0
1 -334 -335 0
1 -334 336 0
1 -334 337 0
1 338 339 0
1 338 -336 0
1 329 223 0
1 329 -334 0
1 -329 -340 0
1 -329 -341 0
1 339 -338 0
1 337 232 0
1 337 338 0
1 239 342 0
1 239 -343 0
1 -239 344 0
1 345 -231 0
1 -345 343 0
1 -346 347 0
1 348 -343 0
1 -348 -344 0
1 231 346 0
1 -231 -349 0
1 -231 -348 0
1 231 -338 0
1 336 350 0
1 336 334 0
1 -351 352 0
1 -347 353 0
1 354 347 0
1 -354 -355 0
1 356 357 0
1 -357 355 0
1 -357 358 0
1 355 -359 0
1 360 -361 0
1 -362 -356 0
1 -363 364 0
1 363 365 0
1 -366 -367 0
1 -368 364 0
1 369 -370 0
1 254 -371 0
1 -254 370 0
1 255 -252 0
1 371 -366 0
1 -367 372 0
1 373 -374 0
1 253 375 0
1 253 -251 0
1 -253 -376 0
1 -377 262 0
1 377 378 0
1 -379 375 0
1 -379 279 0
1 265 -264 0
1 -380 -381 0
1 375 -382 0
1 -383 -253 0
1 378 -384 0
1 -378 379 0
1 -378 383 0
1 385 -178 0
1 -386 375 0
1 386 -380 0
1 -387 -274 0
1 388 389 0
1 -388 390 0
1 -391 -392 0
1 -393 386 0
1 -393 -379 0
1 389 382 0
1 389 -265 0
1 -389 -379 0
1 -269 394 0
1 -269 -390 0
1 -282 395 0
1 -396 -397 0
1 -396 398 0
1 397 -282 0
1 394 -399 0
1 400 -401 0
1 -280 278 0
1 -284 280 0
1 284 395 0
1 402 -288 0
1 -403 276 0
1 -398 404 0
1 -398 -405 0
1 395 -402 0
1 -395 -284 0
1 -406 -407 0
1 -406 -408 0
1 404 -409 0
1 295 -410 0
1 -295 169 0
1 -411 -298 0
1 411 412 0
1 -413 414 0
1 410 -415 0
1 -410 -402 0
1 -410 278 0
1 -416 295 0
1 -414 413 0
1 417 418 0
1 -417 -419 0
1 -420 -416 0
1 305 291 0
1 -305 412 0
1 -415 -302 0
1 303 -421 0
1 412 422 0
1 412 423 0
1 424 -409 0
1 424 413 0
1 425 -418 0
1 426 427 0
1 -426 -313 0
1 -313 -428 0
1 313 -302 0
1 313 194 0
1 -429 427 0
1 -429 -294 0
1 429 430 0
1 -429 -428 0
1 -311 -427 0
1 311 -412 0
1 -311 431 0
1 428 -432 0
1 428 -313 0
1 428 433 0
1 -294 434 0
1 294 311 0
1 -435 -432 0
1 435 422 0
1 -435 292 0
1 435 436 0
1 435 -423 0
1 -427 429 0
1 433 306 0
1 310 -294 0
1 310 428 0
1 -320 -294 0
1 320 -431 0
1 320 437 0
1 -438 439 0
1 438 307 0
1 438 320 0
1 440 -320 0
1 440 433 0
1 -441 -438 0
1 431 -310 0
1 431 442 0
1 430 -432 0
1 -430 429 0
1 317 -326 0
1 -443 315 0
1 -443 -326 0
1 443 440 0
1 -444 -445 0
1 -328 437 0
1 -446 444 0
1 -446 317 0
1 446 -447 0
1 448 194 0
1 -449 -444 0
1 -325 445 0
1 -325 330 0
1 -450 451 0
1 -452 -453 0
1 -452 -330 0
1 -452 454 0
1 452 455 0
1 447 -456 0
1 -451 -450 0
1 -451 -456 0
1 451 -457 0
1 -456 -458 0
1 456 459 0
1 -445 -328 0
1 331 339 0
1 -331 460 0
1 -459 -460 0
1 -459 -345 0
1 -461 456 0
1 -461 -462 0
1 462 -463 0
1 -462 -339 0
1 462 464 0
1 453 -324 0
1 -465 -466 0
1 465 321 0
1 -467 468 0
1 -467 -469 0
1 455 -447 0
1 -470 471 0
1 472 473 0
1 -472 474 0
1 475 476 0
1 -476 477 0
1 476 461 0
1 476 -478 0
1 476 -479 0
1 476 -475 0
1 -464 472 0
1 -463 -477 0
1 471 -480 0
1 471 -475 0
1 -471 341 0
1 -350 342 0
1 479 -476 0
1 479 356 0
1 -481 482 0
1 -483 -481 0
1 -483 484 0
1 483 -352 0
1 483 464 0
1 -485 483 0
1 -474 486 0
1 -474 473 0
1 487 488 0
1 489 -488 0
1 -490 -488 0
1 -482 -343 0
1 482 -491 0
1 -488 492 0
1 484 -492 0
1 -484 493 0
1 -494 495 0
1 -494 496 0
1 494 493 0
1 -494 497 0
1 491 498 0
1 -491 499 0
1 -500 501 0
1 500 499 0
1 501 502 0
1 -503 501 0
1 502 -501 0
1 -502 -504 0
1 -499 505 0
1 -499 498 0
1 -499 490 0
1 -505 -489 0
1 -506 359 0
1 507 -358 0
1 -359 508 0
1 -359 -509 0
1 510 511 0
1 512 513 0
1 -512 362 0
1 512 -510 0
1 -514 -515 0
1 516 -517 0
1 518 519 0
1 -519 -520 0
1 370 -518 0
1 370 521 0
1 370 -254 0
1 370 -522 0
1 -523 524 0
1 -525 526 0
1 527 516 0
1 527 -528 0
1 521 -516 0
1 524 -523 0
1 -529 530 0
1 529 -531 0
1 -529 523 0
1 376 526 0
1 532 521 0
1 528 367 0
1 528 532 0
1 -526 -533 0
1 -526 532 0
1 526 -523 0
1 534 532 0
1 535 -536 0
1 -537 538 0
1 384 539 0
1 -540 -541 0
1 540 542 0
1 -540 -543 0
1 -533 -544 0
1 533 -534 0
1 -542 382 0
1 -542 545 0
1 546 -545 0
1 -546 -365 0
1 -544 -540 0
1 -547 -378 0
1 -547 -542 0
1 -382 543 0
1 -548 549 0
1 548 -550 0
1 551 533 0
1 -551 549 0
1 551 552 0
1 549 -401 0
1 543 548 0
1 -543 367 0
1 541 547 0
1 -541 553 0
1 554 -280 0
1 -554 -555 0
1 401 -556 0
1 399 -557 0
1 558 -559 0
1 -560 554 0
1 560 548 0
1 -561 401 0
1 -561 562 0
1 408 -407 0
1 -408 563 0
1 -564 390 0
1 -564 -558 0
1 -565 -566 0
1 565 -567 0
1 565 -406 0
1 568 557 0
1 -568 -565 0
1 -568 -556 0
1 557 -569 0
1 557 570 0
1 563 -570 0
1 571 -572 0
1 -571 -564 0
1 -556 -408 0
1 556 573 0
1 556 399 0
1 -574 -575 0
1 419 421 0
1 -419 -417 0
1 421 576 0
1 577 -418 0
1 -577 419 0
1 577 -578 0
1 -577 -390 0
1 579 -565 0
1 -579 421 0
1 567 -569 0
1 -567 580 0
1 -418 581 0
1 582 577 0
1 -582 581 0
1 583 566 0
1 583 -584 0
1 -583 577 0
1 -585 586 0
1 -587 588 0
1 576 583 0
1 423 435 0
1 423 589 0
1 422 -423 0
1 -590 591 0
1 -590 592 0
1 589 -593 0
1 589 594 0
1 595 -583 0
1 -596 -597 0
1 598 -591 0
1 -598 -599 0
1 598 294 0
1 -598 589 0
1 -432 591 0
1 432 427 0
1 432 -294 0
1 -432 600 0
1 432 -435 0
1 -601 602 0
1 -601 -436 0
1 601 597 0
1 -603 604 0
1 605 -606 0
1 605 -442 0
1 -605 607 0
1 599 608 0
1 604 -425 0
1 604 -609 0
1 591 432 0
1 -442 610 0
1 606 -450 0
1 606 436 0
1 454 -605 0
1 -610 -611 0
1 434 612 0
1 436 613 0
1 436 614 0
1 602 -615 0
1 602 601 0
1 616 617 0
1 -616 -618 0
1 -619 620 0
1 619 -610 0
1 -621 612 0
1 -622 623 0
1 618 621 0
1 -618 619 0
1 624 -625 0
1 624 -626 0
1 617 625 0
1 617 -627 0
1 617 628 0
1 617 612 0
1 457 -458 0
1 457 622 0
1 469 629 0
1 629 -630 0
1 -629 631 0
1 -632 633 0
1 -632 634 0
1 632 635 0
1 632 621 0
1 636 637 0
1 636 -457 0
1 638 -634 0
1 638 458 0
1 -638 639 0
1 -638 -469 0
1 -630 -350 0
1 -630 -463 0
1 -466 -455 0
1 466 -465 0
1 633 -629 0
1 -640 633 0
1 -640 641 0
1 -642 631 0
1 -643 631 0
1 -477 -644 0
1 -477 -464 0
1 -480 -473 0
1 480 -631 0
1 -480 471 0
1 645 640 0
1 -645 646 0
1 -645 647 0
1 -644 -648 0
1 -497 -649 0
1 496 -494 0
1 496 -650 0
1 651 652 0
1 -651 -494 0
1 -648 646 0
1 478 653 0
1 -478 654 0
1 -478 645 0
1 -650 478 0
1 -650 -645 0
1 -655 656 0
1 649 -497 0
1 -493 652 0
1 -493 482 0
1 492 -652 0
1 -657 -658 0
1 -657 -513 0
1 -657 504 0
1 -652 659 0
1 -652 -657 0
1 -652 -504 0
1 -660 -658 0
1 -660 661 0
1 662 -663 0
1 662 -664 0
1 504 -513 0
1 513 495 0
1 513 503 0
1 665 -666 0
1 -665 667 0
1 -668 -669 0
1 -670 -666 0
1 -670 671 0
1 -670 672 0
1 -666 673 0
1 -666 674 0
1 -666 -511 0
1 675 658 0
1 511 -667 0
1 -676 670 0
1 -676 -677 0
1 -674 669 0
1 -674 -667 0
1 672 677 0
1 672 678 0
1 -677 679 0
1 -677 667 0
1 -677 680 0
1 667 -511 0
1 667 -681 0
1 682 -668 0
1 682 674 0
1 -682 683 0
1 682 -676 0
1 -669 -668 0
1 684 -677 0
1 -685 686 0
1 -687 -678 0
1 687 -686 0
1 686 688 0
1 -686 680 0
1 678 -689 0
1 678 -674 0
1 678 -681 0
1 -678 -680 0
1 -678 -672 0
1 -690 -684 0
1 690 -680 0
1 515 691 0
1 -692 693 0
1 692 694 0
1 -695 -691 0
1 696 697 0
1 -698 -522 0
1 694 515 0
1 694 -699 0
1 -691 -515 0
1 -693 692 0
1 -522 694 0
1 -700 701 0
1 -700 522 0
1 -702 703 0
1 -702 -704 0
1 702 -705 0
1 699 -706 0
1 -699 -698 0
1 -697 701 0
1 697 -702 0
1 531 -707 0
1 531 -708 0
1 -709 710 0
1 -709 -711 0
1 -709 -529 0
1 711 -528 0
1 -703 538 0
1 -703 709 0
1 -712 -713 0
1 -538 -714 0
1 -538 -535 0
1 530 715 0
1 716 715 0
1 716 -717 0
1 716 -540 0
1 716 718 0
1 719 720 0
1 -721 -722 0
1 -715 -722 0
1 723 724 0
1 -723 -709 0
1 725 714 0
1 -725 720 0
1 726 -727 0
1 -726 -717 0
1 -728 -729 0
1 730 -724 0
1 -730 727 0
1 -730 -731 0
1 -730 546 0
1 -717 -716 0
1 720 717 0
1 720 -716 0
1 720 -732 0
1 720 733 0
1 -727 -734 0
1 -727 735 0
1 -736 725 0
1 545 546 0
1 553 539 0
1 553 541 0
1 737 -738 0
1 737 401 0
1 737 -739 0
1 733 729 0
1 -733 -740 0
1 733 735 0
1 -731 741 0
1 -729 534 0
1 -729 728 0
1 -729 -742 0
1 -536 -728 0
1 -743 -734 0
1 -743 -744 0
1 745 -729 0
1 -745 744 0
1 -746 -747 0
1 746 -744 0
1 738 748 0
1 -738 562 0
1 744 749 0
1 744 -733 0
1 740 737 0
1 750 574 0
1 750 -738 0
1 -750 -550 0
1 -750 -562 0
1 -562 -738 0
1 751 556 0
1 752 753 0
1 747 750 0
1 -753 748 0
1 -754 -755 0
1 570 -557 0
1 -559 -751 0
1 559 -756 0
1 -559 752 0
1 -559 -757 0
1 758 569 0
1 759 760 0
1 759 -756 0
1 -759 -570 0
1 -759 -757 0
1 588 579 0
1 588 -761 0
1 -578 -758 0
1 -762 -758 0
1 763 764 0
1 -765 -766 0
1 765 767 0
1 765 -586 0
1 -765 768 0
1 -572 -571 0
1 -572 756 0
1 -572 757 0
1 573 766 0
1 -768 586 0
1 -768 598 0
1 -586 -596 0
1 597 769 0
1 597 770 0
1 -597 -580 0
1 767 -771 0
1 -772 768 0
1 -773 -597 0
1 773 -774 0
1 773 768 0
1 775 -767 0
1 -775 -776 0
1 -775 -580 0
1 -775 -597 0
1 -775 -768 0
1 -580 597 0
1 609 -593 0
1 -609 -777 0
1 778 779 0
1 -778 -780 0
1 778 604 0
1 779 -778 0
1 769 781 0
1 -782 783 0
1 -782 778 0
1 -782 -609 0
1 -784 -599 0
1 785 591 0
1 785 599 0
1 786 613 0
1 -787 784 0
1 780 -788 0
1 789 -790 0
1 -789 780 0
1 -789 791 0
1 -615 -792 0
1 -615 787 0
1 -611 793 0
1 -611 -610 0
1 611 788 0
1 611 787 0
1 627 -794 0
1 795 -796 0
1 -793 -797 0
1 -798 607 0
1 626 -608 0
1 626 -799 0
1 -626 -466 0
1 -626 800 0
1 637 633 0
1 637 -799 0
1 -801 -608 0
1 801 -802 0
1 -801 636 0
1 -794 -803 0
1 794 -801 0
1 802 804 0
1 -802 -805 0
1 796 799 0
1 804 629 0
1 -804 -806 0
1 631 632 0
1 -807 -808 0
1 807 809 0
1 807 -639 0
1 810 -623 0
1 -623 -631 0
1 623 622 0
1 811 628 0
1 -811 812 0
1 -811 805 0
1 -628 617 0
1 628 813 0
1 814 -815 0
1 -816 817 0
1 -809 818 0
1 -819 818 0
1 819 820 0
1 819 821 0
1 -819 814 0
1 -822 -821 0
1 -639 -816 0
1 639 823 0
1 -656 -824 0
1 656 493 0
1 825 826 0
1 -818 809 0
1 818 817 0
1 818 655 0
1 817 827 0
1 817 828 0
1 -817 829 0
1 -830 828 0
1 -824 -831 0
1 -824 -830 0
1 824 828 0
1 -824 -656 0
1 654 832 0
1 654 -833 0
1 834 -835 0
1 -834 -655 0
1 836 -653 0
1 836 -663 0
1 -833 658 0
1 -833 644 0
1 -833 837 0
1 833 -654 0
1 -833 -838 0
1 839 -663 0
1 832 -840 0
1 832 654 0
1 658 -675 0
1 841 842 0
1 -843 -495 0
1 843 826 0
1 843 -842 0
1 -653 658 0
1 842 683 0
1 844 -845 0
1 846 843 0
1 847 683 0
1 683 653 0
1 683 848 0
1 683 -670 0
1 683 842 0
1 -683 -682 0
1 -849 -669 0
1 -849 850 0
1 851 -848 0
1 -848 851 0
1 848 683 0
1 664 841 0
1 664 662 0
1 -664 -683 0
1 -852 -853 0
1 852 854 0
1 -855 856 0
1 -855 -857 0
1 673 -857 0
1 -858 859 0
1 858 851 0
1 860 -858 0
1 689 -861 0
1 -689 -862 0
1 -689 690 0
1 -857 -853 0
1 854 863 0
1 862 857 0
1 -853 682 0
1 863 862 0
1 863 -864 0
1 865 866 0
1 867 -864 0
1 -864 -863 0
1 864 -867 0
1 -868 869 0
1 870 704 0
1 870 -697 0
1 -718 -871 0
1 718 872 0
1 -718 -873 0
1 872 871 0
1 -872 874 0
1 -872 718 0
1 -875 876 0
1 -873 -872 0
1 -877 -871 0
1 -713 -703 0
1 -713 -712 0
1 -724 -878 0
1 871 722 0
1 879 713 0
1 -879 -880 0
1 881 882 0
1 -881 880 0
1 -722 -723 0
1 722 721 0
1 739 -883 0
1 883 -884 0
1 885 724 0
1 885 -739 0
1 -885 886 0
1 -887 -878 0
1 -887 -888 0
1 887 739 0
1 887 889 0
1 887 735 0
1 890 -891 0
1 892 746 0
1 -892 -893 0
1 892 894 0
1 -895 -890 0
1 895 742 0
1 -896 749 0
1 -896 -741 0
1 896 -739 0
1 896 897 0
1 -896 735 0
1 898 899 0
1 -898 -900 0
1 -898 893 0
1 893 -900 0
1 893 -723 0
1 893 735 0
1 741 536 0
1 741 896 0
1 -749 901 0
1 901 902 0
1 894 -890 0
1 -894 903 0
1 904 892 0
1 905 901 0
1 905 -892 0
1 905 736 0
1 -748 740 0
1 906 738 0
1 -906 894 0
1 -755 -907 0
1 755 -908 0
1 -903 754 0
1 903 -909 0
1 -910 -911 0
1 910 -761 0
1 -911 -749 0
1 -911 912 0
1 -911 -913 0
1 914 -915 0
1 -761 754 0
1 -916 759 0
1 -917 907 0
1 -918 919 0
1 -918 -759 0
1 -920 760 0
1 920 -757 0
1 921 -916 0
1 921 -922 0
1 921 -913 0
1 -923 -918 0
1 923 -921 0
1 -923 -924 0
1 923 -917 0
1 760 -907 0
1 925 573 0
1 -926 776 0
1 -919 926 0
1 919 766 0
1 919 927 0
1 928 -929 0
1 930 -927 0
1 930 -931 0
1 -777 572 0
1 776 -932 0
1 776 -775 0
1 -776 933 0
1 934 776 0
1 -935 -766 0
1 -936 -776 0
1 936 937 0
1 938 939 0
1 940 927 0
1 940 777 0
1 -941 -942 0
1 -941 932 0
1 -941 775 0
1 -941 -772 0
1 941 943 0
1 -941 -944 0
1 -945 -942 0
1 -945 -769 0
1 -937 932 0
1 937 -945 0
1 -937 946 0
1 -932 -763 0
1 -932 783 0
1 -932 -944 0
1 -944 945 0
1 944 947 0
1 944 -937 0
1 -942 -572 0
1 -942 -948 0
1 942 -783 0
1 942 947 0
1 943 -941 0
1 781 -939 0
1 781 782 0
1 -949 -950 0
1 -949 -944 0
1 791 -951 0
1 791 780 0
1 791 952 0
1 951 -781 0
1 951 -800 0
1 -774 953 0
1 774 -949 0
1 -774 -945 0
1 -774 954 0
1 -955 781 0
1 955 -947 0
1 -955 937 0
1 956 -949 0
1 956 -580 0
1 956 947 0
1 956 937 0
1 -957 -951 0
1 -957 786 0
1 800 792 0
1 800 -787 0
1 958 -637 0
1 958 954 0
1 -954 -801 0
1 959 958 0
1 -952 -791 0
1 950 -960 0
1 -950 961 0
1 -962 963 0
1 962 -949 0
1 -964 607 0
1 -964 796 0
1 965 -966 0
1 -967 797 0
1 968 967 0
1 -969 -965 0
1 790 808 0
1 790 -967 0
1 -790 -965 0
1 -790 954 0
1 790 -970 0
1 -805 -971 0
1 805 -968 0
1 -812 -816 0
1 -812 972 0
1 973 971 0
1 973 -812 0
1 -971 973 0
1 -797 -974 0
1 797 975 0
1 976 977 0
1 823 628 0
1 978 -979 0
1 978 -980 0
1 -981 -982 0
1 981 -979 0
1 980 983 0
1 980 981 0
1 979 -984 0
1 985 979 0
1 985 -978 0
1 -820 -830 0
1 -820 986 0
1 820 987 0
1 -835 982 0
1 988 -831 0
1 988 -989 0
1 831 -990 0
1 987 820 0
1 986 -831 0
1 986 991 0
1 -986 981 0
1 992 -983 0
1 992 831 0
1 992 -993 0
1 992 -994 0
1 -992 991 0
1 -995 -817 0
1 995 -996 0
1 840 -997 0
1 998 -827 0
1 990 829 0
1 990 999 0
1 -1000 837 0
1 -1000 -840 0
1 997 995 0
1 997 -1001 0
1 1002 1003 0
1 837 1004 0
1 -837 -833 0
1 827 1005 0
1 -827 -1004 0
1 -1006 -999 0
1 1005 -844 0
1 1005 842 0
1 -1007 -827 0
1 -1007 -1008 0
1 -1009 -1010 0
1 1011 1005 0
1 -1012 -1013 0
1 1012 -833 0
1 -1010 1014 0
1 -1010 1009 0
1 -1015 1016 0
1 -1015 -1017 0
1 -1015 -1009 0
1 1018 1019 0
1 -1013 860 0
1 -1013 1018 0
1 -1013 1020 0
1 -1013 -1012 0
1 1021 -1022 0
1 -1021 -1023 0
1 -1021 -1024 0
1 1021 -1012 0
1 1025 -1011 0
1 -1020 1007 0
1 1026 -1027 0
1 1026 1025 0
1 -1026 842 0
1 1008 -1021 0
1 1008 -1017 0
1 -1019 1007 0
1 856 -860 0
1 856 -1020 0
1 1027 -860 0
1 1028 861 0
1 1028 1029 0
1 -1028 1030 0
1 -1028 -1026 0
1 -1031 -1020 0
1 1030 -1027 0
1 1023 659 0
1 -1023 -1030 0
1 1022 664 0
1 -888 -881 0
1 -888 1032 0
1 880 878 0
1 1033 900 0
1 -1034 -880 0
1 1035 -900 0
1 900 -887 0
1 -1036 1032 0
1 1037 893 0
1 -1038 -1039 0
1 -1038 1040 0
1 1041 879 0
1 -882 1035 0
1 -1040 -1038 0
1 -1040 893 0
1 1042 -899 0
1 -1042 1038 0
1 909 -904 0
1 -909 -1043 0
1 -909 -897 0
1 -909 905 0
1 -884 -883 0
1 -884 1044 0
1 -884 1045 0
1 884 -1037 0
1 884 1046 0
1 886 884 0
1 -1047 1048 0
1 -1047 1043 0
1 -1043 -1049 0
1 -1046 894 0
1 -915 -904 0
1 915 914 0
1 1050 899 0
1 -1050 -1051 0
1 -1051 884 0
1 -1051 1052 0
1 -1051 886 0
1 -1053 913 0
1 897 -1054 0
1 899 -1054 0
1 -912 1055 0
1 1056 -1057 0
1 1058 931 0
1 -1058 1050 0
1 1059 1060 0
1 1057 1050 0
1 931 -1061 0
1 931 -1062 0
1 -929 1063 0
1 929 766 0
1 -929 -923 0
1 933 -1064 0
1 -933 1062 0
1 1065 -930 0
1 1065 -922 0
1 1062 -924 0
1 -1063 1062 0
1 1061 1066 0
1 1067 -1066 0
1 1068 -1064 0
1 -1068 930 0
1 -1069 -1064 0
1 1069 -1070 0
1 -1069 1066 0
1 -1069 -1071 0
1 -1069 -946 0
1 -946 -1072 0
1 -1073 1074 0
1 -1073 -939 0
1 -1073 -927 0
1 1073 -933 0
1 1064 -946 0
1 922 1074 0
1 922 1075 0
1 -922 -946 0
1 -1076 -1077 0
1 -1078 -936 0
1 1078 943 0
1 1079 -1064 0
1 -1079 -1070 0
1 1079 -1075 0
1 -1079 1080 0
1 1080 1064 0
1 1071 -1080 0
1 1071 -1078 0
1 1081 -928 0
1 -1081 1078 0
1 -1070 -1082 0
1 -1070 1078 0
1 -948 -1083 0
1 948 -947 0
1 -947 -1084 0
1 -1085 -1071 0
1 -1086 -1083 0
1 -1087 -935 0
1 1088 -1087 0
1 -1088 1089 0
1 -1088 1090 0
1 -1091 1092 0
1 -1091 1080 0
1 -1084 948 0
1 1084 1093 0
1 -960 -1094 0
1 -960 962 0
1 1090 1087 0
1 1095 963 0
1 -1095 -960 0
1 1096 -960 0
1 1096 -953 0
1 -1096 -1097 0
1 1098 -960 0
1 -1098 966 0
1 -1098 -1086 0
1 1099 -953 0
1 1099 -1090 0
1 963 -959 0
1 -963 -790 0
1 963 -805 0
1 970 -1094 0
1 970 813 0
1 -972 -1100 0
1 -972 812 0
1 972 -1101 0
1 972 1102 0
1 972 -970 0
1 1094 -963 0
1 -1103 -1104 0
1 1103 -977 0
1 -1100 960 0
1 -1102 956 0
1 1105 -790 0
1 1106 -1107 0
1 -977 -976 0
1 -1108 972 0
1 -1109 1110 0
1 -1109 -1111 0
1 -1109 1112 0
1 -1109 970 0
1 -1113 1114 0
1 1111 -973 0
1 1111 -979 0
1 -1111 -1104 0
1 989 -1115 0
1 -989 1109 0
1 -1116 -974 0
1 -1116 1117 0
1 1118 1111 0
1 -1119 -974 0
1 1119 -1120 0
1 -1119 1121 0
1 -1122 -974 0
1 -983 -995 0
1 -983 1116 0
1 991 -1123 0
1 1124 1125 0
1 1124 -998 0
1 1126 1127 0
1 -1126 -1128 0
1 -1115 -1124 0
1 1115 -1129 0
1 1130 -1126 0
1 1130 1003 0
1 1003 -1131 0
1 -1003 -1123 0
1 -1132 1133 0
1 1133 -1126 0
1 1133 1002 0
1 -1134 1135 0
1 -1134 -999 0
1 1125 1132 0
1 1125 -991 0
1 -1125 1136 0
1 984 -1137 0
1 984 991 0
1 -1131 1138 0
1 -1131 1139 0
1 -1136 1135 0
1 -1136 -1140 0
1 1140 1136 0
1 -994 -1141 0
1 994 1142 0
1 -1016 1010 0
1 1016 -1143 0
1 1014 -1004 0
1 -1024 1001 0
1 1024 1144 0
1 1145 1016 0
1 -1146 1135 0
1 -1001 1135 0
1 -1143 1024 0
1 1143 -1016 0
1 1143 1147 0
1 1143 -1148 0
1 1143 -1014 0
1 -1143 -1136 0
1 -1149 1144 0
1 1149 1015 0
1 -1017 1148 0
1 1017 -1150 0
1 1151 1152 0
1 -1151 1019 0
1 -1153 -1017 0
1 1152 1151 0
1 1152 -1017 0
1 -1154 1041 0
1 1154 -1155 0
1 -1154 -1039 0
1 1039 -1047 0
1 1052 -1156 0
1 1052 -1157 0
1 1158 1039 0
1 1159 -1033 0
1 -1160 -1039 0
1 1049 913 0
1 1045 1156 0
1 1045 1161 0
1 -1162 -1044 0
1 1162 1158 0
1 -1163 -1164 0
1 1165 1054 0
1 1156 -1041 0
1 1156 -1052 0
1 1156 1161 0
1 -1156 -1166 0
1 1161 1052 0
1 1161 -1162 0
1 -1161 1167 0
1 -1054 899 0
1 -1168 1169 0
1 -1044 -1054 0
1 1044 1163 0
1 -1044 1170 0
1 -1044 -1066 0
1 1044 -1171 0
1 -1164 1162 0
1 1169 -1168 0
1 1172 1169 0
1 -1171 -1173 0
1 1060 1068 0
1 1060 -1059 0
1 1066 -1174 0
1 1072 1174 0
1 1072 946 0
1 1175 -1176 0
1 1173 -899 0
1 -1177 1171 0
1 1178 -1179 0
1 1075 -1174 0
1 -1075 -1180 0
1 1180 1076 0
1 -1174 -1055 0
1 -1181 1057 0
1 -1077 1076 0
1 1077 1081 0
1 1182 -1183 0
1 1182 1184 0
1 1182 1185 0
1 -1182 1186 0
1 1187 1188 0
1 1189 -1077 0
1 1190 1075 0
1 -1190 -1191 0
1 -1188 -1067 0
1 -1188 1192 0
1 1188 -1074 0
1 1188 -1077 0
1 1188 -1180 0
1 -1193 -1189 0
1 1193 1070 0
1 1092 -1093 0
1 1093 -1183 0
1 -1093 1194 0
1 -1093 -1195 0
1 1196 1092 0
1 1196 -1101 0
1 1196 -1093 0
1 1184 1196 0
1 -1186 -1197 0
1 1186 -1093 0
1 -1186 1082 0
1 1183 -1182 0
1 1089 963 0
1 -1089 1198 0
1 1089 -1088 0
1 -1199 -1098 0
1 -1199 961 0
1 -1199 1196 0
1 1200 1201 0
1 -1101 -1202 0
1 1101 -1184 0
1 1101 1201 0
1 -1195 1089 0
1 1195 1203 0
1 -1204 1205 0
1 -1204 -1206 0
1 1207 1092 0
1 1207 1208 0
1 -1207 -1209 0
1 -1198 -1070 0
1 1198 1210 0
1 1198 -1211 0
1 -1203 1099 0
1 1107 -1098 0
1 -1107 1095 0
1 -1107 1201 0
1 1107 1099 0
1 -1206 1212 0
1 -1206 -1201 0
1 1202 1213 0
1 1202 1206 0
1 1214 1101 0
1 -1214 1114 0
1 -1104 1102 0
1 1104 1111 0
1 -1104 -1208 0
1 -1104 1113 0
1 1215 -1097 0
1 1114 -1216 0
1 1114 -1214 0
1 1114 1217 0
1 1114 -1218 0
1 1213 -1219 0
1 1213 1114 0
1 -1213 1113 0
1 1220 -1221 0
1 1220 -1212 0
1 1220 1104 0
1 1097 -1110 0
1 1097 -1222 0
1 1097 1104 0
1 1223 -1224 0
1 1223 1225 0
1 -1217 1226 0
1 1222 -1227 0
1 1222 -1108 0
1 1222 1097 0
1 -1110 1228 0
1 1110 1229 0
1 1121 1221 0
1 1121 1119 0
1 1230 1110 0
1 -1229 -1231 0
1 -1229 -1232 0
1 -1227 -1233 0
1 1216 1221 0
1 1216 -1234 0
1 1231 -1130 0
1 -1117 1233 0
1 1117 1116 0
1 -1117 -1235 0
1 1236 -1237 0
1 -1236 -1235 0
1 1112 1137 0
1 -1112 -1238 0
1 -1237 -1239 0
1 1237 -1240 0
1 -1235 -1241 0
1 1137 1242 0
1 -1243 1244 0
1 -1245 984 0
1 -1246 -1247 0
1 1246 -1248 0
1 -1246 1139 0
1 1246 1245 0
1 1249 -1245 0
1 -1120 -1241 0
1 1142 1016 0
1 -1142 1250 0
1 1142 1251 0
1 -1139 -1241 0
1 1139 -1134 0
1 -1252 1138 0
1 1248 1253 0
1 1254 -1252 0
1 1254 -1243 0
1 -1254 1147 0
1 -1254 1148 0
1 1129 -1255 0
1 -1129 -1252 0
1 1129 -1256 0
1 -1141 -1143 0
1 -1141 -1148 0
1 1147 -1001 0
1 1147 1143 0
1 -1257 1141 0
1 -1257 1147 0
1 1258 -1148 0
1 -1166 -1172 0
1 1259 1161 0
1 1259 -1165 0
1 -1260 1172 0
1 1260 1261 0
1 -1262 -1263 0
1 -1264 -1262 0
1 1263 -1159 0
1 -1265 -1262 0
1 -1265 -1166 0
1 -1170 -1266 0
1 1267 -1264 0
1 -1268 -1264 0
1 1268 -1269 0
1 1270 -1271 0
1 1270 -1170 0
1 -1269 1262 0
1 1269 -1185 0
1 1269 1272 0
1 1273 -1262 0
1 -1273 1267 0
1 1271 1173 0
1 -1271 1274 0
1 1271 -1175 0
1 -1185 -1270 0
1 1185 1275 0
1 -1185 -1181 0
1 -1275 1276 0
1 1275 1274 0
1 -1275 1187 0
1 -1277 -1278 0
1 -1276 1274 0
1 -1279 -1193 0
1 -1279 -1277 0
1 1280 -1093 0
1 1281 1282 0
1 -1281 1283 0
1 1284 -1278 0
1 -1285 1275 0
1 -1286 1183 0
1 -1197 -1287 0
1 1283 1183 0
1 -1283 1287 0
1 -1283 1288 0
1 1287 -1286 0
1 -1289 1278 0
1 1289 1290 0
1 -1289 -1179 0
1 1291 -1292 0
1 1291 -1282 0
1 -1291 -1174 0
1 1293 -1292 0
1 1293 -1197 0
1 -1211 1210 0
1 -1211 -1203 0
1 1209 -1206 0
1 -1290 -1192 0
1 1290 1287 0
1 1288 1294 0
1 -1288 1211 0
1 1295 -1210 0
1 1191 -1296 0
1 -1192 1297 0
1 1192 1283 0
1 -1208 -1298 0
1 1208 1299 0
1 1294 1288 0
1 1294 1195 0
1 -1218 1300 0
1 -1219 1218 0
1 -1219 -1298 0
1 1301 1302 0
1 1301 -1208 0
1 -1298 -1303 0
1 1298 -1304 0
1 -1305 -1306 0
1 1305 -1208 0
1 -1226 -1307 0
1 1308 1309 0
1 1308 -1205 0
1 1310 1223 0
1 1310 1311 0
1 -1310 1307 0
1 1307 1224 0
1 1205 1218 0
1 1311 1312 0
1 1234 -1307 0
1 -1233 1309 0
1 1233 -1313 0
1 -1233 -1234 0
1 1314 1315 0
1 -1314 -1313 0
1 -1316 -1309 0
1 -1316 -1317 0
1 -1316 1318 0
1 -1309 1319 0
1 -1319 1244 0
1 -1319 1232 0
1 1315 -1233 0
1 1315 -1310 0
1 -1242 1237 0
1 -1242 1320 0
1 1242 -1321 0
1 1232 1225 0
1 1232 1322 0
1 1244 -1317 0
1 1244 -1323 0
1 -1323 1244 0
1 1324 -1220 0
1 -1324 1244 0
1 -1317 1325 0
1 -1317 1323 0
1 -1225 -1326 0
1 -1225 1314 0
1 1225 -1323 0
1 -1321 -1314 0
1 -1239 -1324 0
1 1241 1327 0
1 -1325 -1327 0
1 1328 -1120 0
1 -1328 -1329 0
1 -1330 1325 0
1 -1327 -1323 0
1 1331 -1325 0
1 1247 -1246 0
1 1247 1332 0
1 -1255 -1329 0
1 -1333 -1147 0
1 -1334 -1325 0
1 1334 1328 0
1 -1329 1335 0
1 1329 1247 0
1 1336 1276 0
1 1336 -1269 0
1 -1337 -1336 0
1 1338 -1274 0
1 1339 -1337 0
1 -1340 -1292 0
1 -1341 -1342 0
1 -1341 -1343 0
1 1343 1344 0
1 1272 -1345 0
1 1342 1346 0
1 1347 -1342 0
1 1348 1281 0
1 -1348 -1284 0
1 1282 1349 0
1 1282 1285 0
1 -1282 1284 0
1 -1282 -1348 0
1 1350 1351 0
1 1350 1352 0
1 -1351 1353 0
1 -1351 1293 0
1 -1349 -1341 0
1 -1349 1350 0
1 1349 1354 0
1 1354 -1348 0
1 1355 -1282 0
1 1355 1348 0
1 1353 -1356 0
1 1357 1293 0
1 1358 -1359 0
1 -1358 -1360 0
1 1361 1362 0
1 -1352 1357 0
1 1362 -1363 0
1 1364 -1365 0
1 1364 -1358 0
1 -1364 -1357 0
1 -1366 -1295 0
1 -1306 -1297 0
1 -1367 -1302 0
1 1367 -1368 0
1 -1369 1366 0
1 -1369 1361 0
1 -1360 -1370 0
1 1360 1304 0
1 1371 1311 0
1 -1302 -1305 0
1 -1302 -1372 0
1 -1312 1373 0
1 1318 1316 0
1 -1374 1375 0
1 -1376 -1322 0
1 1320 1376 0
1 -1320 -1303 0
1 1320 1377 0
1 -1322 1376 0
1 -1322 -1205 0
1 -1322 -1313 0
1 -1322 1311 0
1 -1378 -1315 0
1 -1378 1244 0
1 -1379 -1315 0
1 1379 1374 0
1 1377 -1326 0
1 -1377 -1380 0
1 -1380 1320 0
1 -1380 -1377 0
1 1303 -1381 0
1 -1303 -1373 0
1 -1303 1382 0
1 -1303 1379 0
1 -1383 1225 0
1 1383 -1375 0
1 1326 -1384 0
1 1385 -1386 0
1 -1385 -1307 0
1 -1387 -1384 0
1 1388 1378 0
1 -1388 1384 0
1 1388 1379 0
1 1389 -1390 0
1 -1386 -1387 0
1 -1391 -1392 0
1 -1393 1394 0
1 1394 -1386 0
1 1345 -1355 0
1 1395 -1396 0
1 1395 -1353 0
1 1356 1396 0
1 1356 -1397 0
1 1398 -1399 0
1 -1365 -1354 0
1 1400 -1399 0
1 -1400 1401 0
1 -1399 -1400 0
1 1401 -1402 0
1 1403 1363 0
1 -1346 1404 0
1 1346 1395 0
1 -1405 -1399 0
1 -1370 1362 0
1 1406 -1407 0
1 -1402 1403 0
1 1408 1406 0
1 1408 1409 0
1 -1410 1363 0
1 -1410 1411 0
1 -1409 1412 0
1 1409 1322 0
1 -1413 -1378 0
1 1407 -1375 0
1 -1407 1414 0
1 1407 -1409 0
1 1415 -1416 0
1 -1415 1417 0
1 -1418 1419 0
1 1420 1402 0
1 1375 1303 0
1 1421 -1303 0
1 1422 -1423 0
1 1422 1424 0
1 -1422 1303 0
1 1423 -1413 0
1 -1425 -1422 0
1 1426 1359 0
1 -1426 1427 0
1 1428 -1429 0
1 -1428 -1422 0
1 1381 1430 0
1 -1381 1424 0
1 1381 1431 0
1 -1381 1388 0
1 1382 -1430 0
1 1382 1424 0
1 1382 1303 0
1 1432 1433 0
1 1432 -1430 0
1 1392 1425 0
1 -1434 1435 0
1 -1436 -1437 0
1 1438 -1437 0
1 -1439 1440 0
1 1439 1441 0
1 1439 1419 0
1 -1437 1436 0
1 1442 1443 0
1 1444 1438 0
1 1435 -1434 0
1 1435 -1436 0
1 -1443 -1408 0
1 1443 -1445 0
1 -1446 1422 0
1 -1446 -1447 0
1 1448 1440 0
1 -1440 1443 0
1 -1440 1449 0
1 1404 -1449 0
1 -1441 -1404 0
1 -1416 -1440 0
1 1416 -1426 0
1 1416 -1414 0
1 -1414 -1450 0
1 -1414 1426 0
1 -1429 1451 0
1 1427 1447 0
1 -1450 1448 0
1 -1452 1427 0
1 -1447 1427 0
1 -1447 -1448 0
